CPXPARAM_TimeLimit                               3600
CPXPARAM_Read_DataCheck                          1
Tried aggregator 1 time.
LP Presolve eliminated 11 rows and 0 columns.
Reduced LP has 133 rows, 31 columns, and 362 nonzeros.
Presolve time = 0.00 sec. (0.07 ticks)

Iteration log . . .
Iteration:     1   Dual objective     =            23.000000
